p cnf 409 406
-4 0
-12 0
-22 0
-23 0
-39 0
-40 0
-53 0
-54 0
-55 0
-84 0
-85 0
-86 0
-87 0
-96 0
-95 -97 0
-98 0
-99 0
-111 0
-112 0
-117 0
-150 0
-151 0
-152 0
-153 0
-184 0
-185 0
-187 0
-188 0
-189 0
-190 0
-220 0
-221 0
-224 0
-226 0
-301 0
-302 0
-323 0
-324 0
-340 0
-341 0
-344 0
-345 0
-359 0
-360 0
-369 0
-387 0
-388 0
-407 0
-408 0
-417 0
-547 0
-548 0
-585 0
-586 0
-610 0
-611 0
-630 0
-635 0
-636 0
-669 0
-670 0
-711 0
-712 0
-736 0
-737 0
-751 0
-752 0
-757 0
-758 0
-767 0
-768 0
-770 0
-771 0
-783 0
-784 0
-793 0
-794 0
-806 0
-807 0
-883 0
-884 0
-916 0
-917 0
-935 0
-936 0
-957 0
-958 0
-984 0
-985 0
-1026 0
-1027 0
-1028 0
-1052 0
-1053 0
-1130 0
-1131 0
-1159 0
-1160 0
-1175 0
-1176 0
-1180 0
-1194 0
-1195 0
-1224 0
-1225 0
-1243 0
-1244 0
-1290 0
-1291 0
-1338 0
-1339 0
-1358 0
-1359 0
-1403 0
-1404 0
-1413 0
-1414 -1415 0
-1416 0
-1417 0
-1420 0
-1421 0
-1431 0
-1432 0
-1438 0
-1439 0
-1460 0
-1461 0
-1479 0
-1480 0
-1482 0
-1483 0
-1491 0
-1492 0
-1507 0
-1508 -1509 0
-1525 0
-1541 0
-1542 0
-1554 0
-1555 0
-1578 0
-1579 0
-1605 0
-1606 0
-1621 0
-1636 0
-1637 0
-1644 0
-1645 0
-1670 0
-1671 0
-1672 0
-1673 0
-1680 0
-1681 0
-1712 0
-1713 0
-1720 0
-1721 0
-1728 0
-1729 0
-1736 0
-1737 0
-1775 0
-1776 0
-1782 0
-1785 0
-1786 0
-1802 0
-1803 0
-1831 0
-1832 0
-1861 0
-1862 0
-1874 0
-1875 0
-1877 0
-1878 0
-1882 0
-1883 0
-1890 0
-1891 0
-1920 0
-1921 0
-1936 0
-1937 0
-1957 0
-1958 0
-1964 0
-1965 0
-2055 0
-2056 0
-2074 0
-2075 0
-2097 0
-2098 0
-2109 0
-2110 0
-2111 0
-2112 0
-2120 0
-2168 0
-2169 0
-2174 0
-2175 0
-2181 0
-2192 0
-2193 0
-2202 0
-2203 0
-2204 0
-2205 0
-2219 0
-2220 0
-2257 0
-2258 0
-2260 0
-2261 0
-2291 0
-2292 0
-2315 0
-2343 0
-2344 0
-2380 0
-2381 0
-2399 0
-2400 0
-2401 0
-2402 0
-2423 0
-2424 0
-2428 0
-2429 0
-2457 0
-2479 0
-2480 0
-2485 0
-2487 0
-2509 0
-2510 0
-2517 0
-2554 0
-2555 0
-2571 0
-2572 0
-2608 0
-2609 0
-2631 0
-2632 0
-2643 0
-2644 0
-2646 0
-2647 0
-2653 0
-2654 0
-2659 0
-2660 0
-2705 0
-2708 0
-2709 0
-2718 0
-2719 0
-2772 0
-2773 0
-2779 0
-2780 0
-2781 0
-2782 0
-2809 0
-2810 0
-2867 0
-2876 0
-2934 0
-2935 0
-2951 0
-2952 0
-2956 0
-2957 0
-2988 0
-2989 0
-3001 0
-3002 0
-3057 0
-3058 0
-3060 0
-3090 0
-3103 0
-3105 0
-3107 0
-3152 0
-3153 0
-3156 0
-3157 0
-3158 0
-3159 0
-3168 0
-3169 0
-3185 0
-3186 0
-3190 0
-3191 0
-3193 0
-3194 0
-3196 0
-3197 0
-3212 0
-3213 0
-3240 0
-3241 0
-3243 0
-3244 0
-3253 0
-3254 0
-3255 0
-3256 0
-3348 0
-3349 0
-3362 0
-3363 0
-3367 0
-3368 0
-3380 0
-3381 0
-3390 0
-3391 0
-3426 0
-3427 0
-3436 0
-3437 0
-3517 0
-3540 0
-3541 0
-3543 0
-3544 0
-3545 0
-3546 -3547 0
-3560 0
-3561 0
-3565 0
-3566 0
-3570 0
-3571 0
-3590 0
-3591 0
-3592 0
-3593 0
-3608 0
-3609 0
-3617 0
-3618 0
-3632 0
-3633 0
-3637 0
-3638 0
-3640 0
-3652 0
-3653 0
-3661 0
-3662 0
-3688 0
-3689 0
-3694 0
-3708 0
-3709 0
-3726 0
-97 -3734 0
-3735 0
-95 -3736 0
-3734 -3736 0
-3746 0
-3753 0
-3754 0
-3768 0
-3803 0
-3817 0
-3818 0
-3857 0
-3858 0
-3860 0
-3861 0
-3862 0
-3863 0
-3871 0
-3872 0
-3969 0
-3970 0
-4050 0
-4051 0
-4081 0
-4082 0
-4133 0
-4134 0
-4135 0
-4148 0
-4149 0
-4156 0
-4157 0
-4204 0
-4205 0
-4263 0
-4264 0
-4282 0
-1056 0
-1057 0
-1103 0
-1104 0
